min: c;

c = 2.9338399674504 * u2_t7_h3 + 3.01906897361391 * u2_t7_h4 + 3.4657834523576 * u2_t2_h5 + 3.4657834523576 * u2_t3_h5 + 3.4657834523576 * u2_t7_h5 + 3.94135945152952 * u2_t2_h6 + 3.94135945152952 * u2_t3_h6 + 3.94135945152952 * u2_t4_h6 + 3.94135945152952 * u2_t7_h6 + 3.94135945152952 * u2_t10_h6 + 4.02827939713722 * u2_t2_h7 + 4.02827939713722 * u2_t3_h7 + 4.02827939713722 * u2_t4_h7 + 4.02827939713722 * u2_t7_h7 + 4.02827939713722 * u2_t10_h7 + 5.259208716229 * u2_t2_h8 + 5.259208716229 * u2_t3_h8 + 5.259208716229 * u2_t4_h8 + 5.259208716229 * u2_t7_h8 + 5.259208716229 * u2_t10_h8 + 5.17423015243256 * u2_t2_h9 + 5.17423015243256 * u2_t3_h9 + 5.17423015243256 * u2_t4_h9 + 5.17423015243256 * u2_t7_h9 + 5.17423015243256 * u2_t10_h9 + 5.85443448479517 * u2_t2_h10 + 5.85443448479517 * u2_t3_h10 + 5.85443448479517 * u2_t4_h10 + 5.85443448479517 * u2_t7_h10 + 5.85443448479517 * u2_t10_h10 + 4.27958852589422 * u2_t1_h11 + 4.27958852589422 * u2_t2_h11 + 4.27958852589422 * u2_t3_h11 + 4.27958852589422 * u2_t4_h11 + 4.27958852589422 * u2_t7_h11 + 4.27958852589422 * u2_t10_h11 + 6.33569055348938 * u2_t1_h12 + 6.33569055348938 * u2_t3_h12 + 6.33569055348938 * u2_t4_h12 + 6.33569055348938 * u2_t7_h12 + 4.56019555535156 * u2_t1_h13 + 4.56019555535156 * u2_t3_h13 + 4.56019555535156 * u2_t4_h13 + 4.56019555535156 * u2_t7_h13 + 4.56019555535156 * u2_t9_h13 + 5.353872225678 * u2_t1_h14 + 5.353872225678 * u2_t3_h14 + 5.353872225678 * u2_t4_h14 + 5.353872225678 * u2_t7_h14 + 5.353872225678 * u2_t9_h14 + 6.62533815586947 * u2_t1_h15 + 6.62533815586947 * u2_t3_h15 + 6.62533815586947 * u2_t4_h15 + 6.62533815586947 * u2_t7_h15 + 6.62533815586947 * u2_t9_h15 + 6.32352885758841 * u2_t1_h16 + 6.32352885758841 * u2_t3_h16 + 6.32352885758841 * u2_t4_h16 + 6.32352885758841 * u2_t7_h16 + 6.32352885758841 * u2_t9_h16 + 6.05810212282587 * u2_t1_h17 + 6.05810212282587 * u2_t3_h17 + 6.05810212282587 * u2_t4_h17 + 6.05810212282587 * u2_t7_h17 + 6.05810212282587 * u2_t9_h17 + 6.38398539283024 * u2_t1_h18 + 6.38398539283024 * u2_t3_h18 + 6.38398539283024 * u2_t4_h18 + 6.38398539283024 * u2_t6_h18 + 6.38398539283024 * u2_t7_h18 + 5.84587470880221 * u2_t1_h19 + 5.84587470880221 * u2_t3_h19 + 5.84587470880221 * u2_t4_h19 + 5.84587470880221 * u2_t5_h19 + 5.84587470880221 * u2_t6_h19 + 5.84587470880221 * u2_t7_h19 + 5.12744747603087 * u2_t1_h20 + 5.12744747603087 * u2_t3_h20 + 5.12744747603087 * u2_t4_h20 + 5.12744747603087 * u2_t6_h20 + 5.12744747603087 * u2_t7_h20 + 5.00685763661534 * u2_t1_h21 + 5.00685763661534 * u2_t3_h21 + 5.00685763661534 * u2_t6_h21 + 5.00685763661534 * u2_t7_h21 + 5.00685763661534 * u2_t8_h21 + 5.09822355409956 * u2_t1_h22 + 5.09822355409956 * u2_t3_h22 + 5.09822355409956 * u2_t7_h22 + 5.09822355409956 * u2_t8_h22 + 5.56716988184045 * u2_t3_h23 + 5.56716988184045 * u2_t7_h23 + 5.56716988184045 * u2_t8_h23;
0 <= u2_t1_h11 <= 1;
0 <= u2_t1_h12 <= 1;
0 <= u2_t1_h13 <= 1;
0 <= u2_t1_h14 <= 1;
0 <= u2_t1_h15 <= 1;
0 <= u2_t1_h16 <= 1;
0 <= u2_t1_h17 <= 1;
0 <= u2_t1_h18 <= 1;
0 <= u2_t1_h19 <= 1;
0 <= u2_t1_h20 <= 1;
0 <= u2_t1_h21 <= 1;
0 <= u2_t1_h22 <= 1;
u2_t1_h11 + u2_t1_h12 + u2_t1_h13 + u2_t1_h14 + u2_t1_h15 + u2_t1_h16 + u2_t1_h17 + u2_t1_h18 + u2_t1_h19 + u2_t1_h20 + u2_t1_h21 + u2_t1_h22 = 2;
0 <= u2_t2_h5 <= 1;
0 <= u2_t2_h6 <= 1;
0 <= u2_t2_h7 <= 1;
0 <= u2_t2_h8 <= 1;
0 <= u2_t2_h9 <= 1;
0 <= u2_t2_h10 <= 1;
0 <= u2_t2_h11 <= 1;
u2_t2_h5 + u2_t2_h6 + u2_t2_h7 + u2_t2_h8 + u2_t2_h9 + u2_t2_h10 + u2_t2_h11 = 2;
0 <= u2_t3_h5 <= 1;
0 <= u2_t3_h6 <= 1;
0 <= u2_t3_h7 <= 1;
0 <= u2_t3_h8 <= 1;
0 <= u2_t3_h9 <= 1;
0 <= u2_t3_h10 <= 1;
0 <= u2_t3_h11 <= 1;
0 <= u2_t3_h12 <= 1;
0 <= u2_t3_h13 <= 1;
0 <= u2_t3_h14 <= 1;
0 <= u2_t3_h15 <= 1;
0 <= u2_t3_h16 <= 1;
0 <= u2_t3_h17 <= 1;
0 <= u2_t3_h18 <= 1;
0 <= u2_t3_h19 <= 1;
0 <= u2_t3_h20 <= 1;
0 <= u2_t3_h21 <= 1;
0 <= u2_t3_h22 <= 1;
0 <= u2_t3_h23 <= 1;
u2_t3_h5 + u2_t3_h6 + u2_t3_h7 + u2_t3_h8 + u2_t3_h9 + u2_t3_h10 + u2_t3_h11 + u2_t3_h12 + u2_t3_h13 + u2_t3_h14 + u2_t3_h15 + u2_t3_h16 + u2_t3_h17 + u2_t3_h18 + u2_t3_h19 + u2_t3_h20 + u2_t3_h21 + u2_t3_h22 + u2_t3_h23 = 1;
0 <= u2_t4_h6 <= 1;
0 <= u2_t4_h7 <= 1;
0 <= u2_t4_h8 <= 1;
0 <= u2_t4_h9 <= 1;
0 <= u2_t4_h10 <= 1;
0 <= u2_t4_h11 <= 1;
0 <= u2_t4_h12 <= 1;
0 <= u2_t4_h13 <= 1;
0 <= u2_t4_h14 <= 1;
0 <= u2_t4_h15 <= 1;
0 <= u2_t4_h16 <= 1;
0 <= u2_t4_h17 <= 1;
0 <= u2_t4_h18 <= 1;
0 <= u2_t4_h19 <= 1;
0 <= u2_t4_h20 <= 1;
u2_t4_h6 + u2_t4_h7 + u2_t4_h8 + u2_t4_h9 + u2_t4_h10 + u2_t4_h11 + u2_t4_h12 + u2_t4_h13 + u2_t4_h14 + u2_t4_h15 + u2_t4_h16 + u2_t4_h17 + u2_t4_h18 + u2_t4_h19 + u2_t4_h20 = 3;
0 <= u2_t5_h19 <= 1;
u2_t5_h19 = 1;
0 <= u2_t6_h18 <= 1;
0 <= u2_t6_h19 <= 1;
0 <= u2_t6_h20 <= 1;
0 <= u2_t6_h21 <= 1;
u2_t6_h18 + u2_t6_h19 + u2_t6_h20 + u2_t6_h21 = 2;
0 <= u2_t7_h3 <= 1;
0 <= u2_t7_h4 <= 1;
0 <= u2_t7_h5 <= 1;
0 <= u2_t7_h6 <= 1;
0 <= u2_t7_h7 <= 1;
0 <= u2_t7_h8 <= 1;
0 <= u2_t7_h9 <= 1;
0 <= u2_t7_h10 <= 1;
0 <= u2_t7_h11 <= 1;
0 <= u2_t7_h12 <= 1;
0 <= u2_t7_h13 <= 1;
0 <= u2_t7_h14 <= 1;
0 <= u2_t7_h15 <= 1;
0 <= u2_t7_h16 <= 1;
0 <= u2_t7_h17 <= 1;
0 <= u2_t7_h18 <= 1;
0 <= u2_t7_h19 <= 1;
0 <= u2_t7_h20 <= 1;
0 <= u2_t7_h21 <= 1;
0 <= u2_t7_h22 <= 1;
0 <= u2_t7_h23 <= 1;
u2_t7_h3 + u2_t7_h4 + u2_t7_h5 + u2_t7_h6 + u2_t7_h7 + u2_t7_h8 + u2_t7_h9 + u2_t7_h10 + u2_t7_h11 + u2_t7_h12 + u2_t7_h13 + u2_t7_h14 + u2_t7_h15 + u2_t7_h16 + u2_t7_h17 + u2_t7_h18 + u2_t7_h19 + u2_t7_h20 + u2_t7_h21 + u2_t7_h22 + u2_t7_h23 = 3;
0 <= u2_t8_h21 <= 1;
0 <= u2_t8_h22 <= 1;
0 <= u2_t8_h23 <= 1;
u2_t8_h21 + u2_t8_h22 + u2_t8_h23 = 2;
0 <= u2_t9_h13 <= 1;
0 <= u2_t9_h14 <= 1;
0 <= u2_t9_h15 <= 1;
0 <= u2_t9_h16 <= 1;
0 <= u2_t9_h17 <= 1;
u2_t9_h13 + u2_t9_h14 + u2_t9_h15 + u2_t9_h16 + u2_t9_h17 = 1;
0 <= u2_t10_h6 <= 1;
0 <= u2_t10_h7 <= 1;
0 <= u2_t10_h8 <= 1;
0 <= u2_t10_h9 <= 1;
0 <= u2_t10_h10 <= 1;
0 <= u2_t10_h11 <= 1;
u2_t10_h6 + u2_t10_h7 + u2_t10_h8 + u2_t10_h9 + u2_t10_h10 + u2_t10_h11 = 2;
